3 
4  54 
5  14 32 47 
6  00 15 30 45 
7  00 15 30 45 
8  00 15 30 46 
9  00 15 30 45 
10  00 14 29 44 59 
11  14 29 44 59 
12  14 29 44 59 
13  14 29 44 59 
14  14 29 44 59 
15  14 29 44 59 
16  14 29 44 59 
17  14 29 44 59 
18  15 30 45 
19  00 15 30 45 
20  00 15 30 48 
21  03 15 30 45 
22  00 19 34 50 
23 
0 
